c read Graph
c width = 327
c time = 204 ms
c width = 25
c time = 438 ms
c width = 24
c time = 639 ms
c width = 23
c time = 685 ms
c width = 22
c time = 2231 ms
c width = 22
c time = 4960 ms
s td 273 23 340
b 1 1 2 21
b 2 2 3 21 22
b 3 18 19 39 40
b 4 3 21 22 41
b 5 18 39 40 60
b 6 281 301 302 322
b 7 300 319 320 339
b 8 281 302 322 323
b 9 300 319 338 339
b 10 3 4 5 24
b 11 3 5 23 24 42 61
b 12 5 23 24 42 44 61 63
b 13 5 24 42 44 61 63 82
b 14 5 24 44 61 63 82 101
b 15 5 24 26 44 45 63 82 101
b 16 5 26 44 45 63 65 82 84 101
b 17 5 26 45 63 65 82 84 101 103
b 18 5 26 45 65 82 84 101 103 122
b 19 5 26 45 47 65 66 84 101 103 122
b 20 26 45 46 47 66
b 21 5 26 47 65 66 84 87 101 103 107 122 124 126 145
b 22 5 26 47 66 68 87 101 103 107 122 124 126 145
b 23 47 66 67 68 87
b 24 65 66 84 87 103 105 107 124 126 145
b 25 65 66 84 86 87 105 107 126
b 26 86 105 106 107 126
b 27 65 84 85 86 105
b 28 84 103 104 105 124
b 29 105 124 125 126 145
b 30 82 101 102 103 122
b 31 63 82 83 84 103
b 32 44 63 64 65 84
b 33 5 24 25 26 45
b 34 61 81 82 101
b 35 42 61 62 63 82
b 36 23 42 43 44 63
b 37 3 23 41 42 61
b 38 3 22 23 41 42
b 39 170 189 190 191 210
b 40 103 122 123 124 143
b 41 162 181 182 183 202
b 42 124 143 144 145 164
b 43 143 162 163 164 183
b 44 5 26 47 68 87 101 103 107 122 124 126 143 145
b 45 101 122 143 162 164 181 183 202
b 46 5 26 47 68 87 101 107 122 124 126 143 145 164
b 47 9 30 49 68 87 107 128 129 150 170 189 191 210 229 248 269 290 309 330
b 48 5 9 26 30 47 49 68 87 101 107 122 126 143 145 164
b 49 9 30 49 68 87 107 128 129 147 150 168 170 189 210 229 248 269 290 309 330
b 50 9 30 49 68 87 107 126 128 147 168 189 210 229 248 269 290 309 330
b 51 9 30 49 68 87 101 107 122 126 143 145 164 181 183 202
b 52 164 181 183 185 202 206 227 248 267 269 286 290 305 309 326 330
b 53 9 30 49 68 87 107 126 145 147 164 168 181 183 189 202 210 229 248 269 290 309 330
b 54 126 145 147 164 168 181 183 185 189 202 206 210 227 229 248 269 290 309 330
b 55 164 168 181 183 185 189 202 206 210 227 229 248 269 290 309 330
b 56 101 122 141 143 162 181
b 57 101 121 122 141
b 58 141 161 162 181
b 59 122 141 142 143 162
b 60 5 9 26 28 30 47 49 68
b 61 28 47 48 49 68
b 62 9 28 29 30 49
b 63 5 7 9 26 28 47
b 64 7 8 9 28
b 65 5 6 7 26
b 66 7 26 27 28 47
b 67 9 30 49 51 68 72 87 93 107 112 128 129 131 150 170 191 210 229 248 269 290 309 330
b 68 30 49 51 68 72 87 93 107 110 112 128 129 131 150
b 69 110 129 130 131 150
b 70 30 49 51 68 72 87 89 93 107 110 112 128 129 131
b 71 68 87 89 107 108 110 128 129
b 72 68 87 88 89 108
b 73 89 108 109 110 129
b 74 30 49 51 68 72 89 91 93 110 112 131
b 75 30 49 51 68 70 72 89 91 110
b 76 70 89 90 91 110
b 77 49 68 69 70 89
b 78 30 49 50 51 70
b 79 51 70 71 72 91
b 80 72 91 92 93 112
b 81 91 110 111 112 131
b 82 9 30 51 72 93 112 131 150 170 191 192 210 213 229 233 248 252 269 271 290 309 330
b 83 9 30 51 72 93 112 114 131 135 150 156 170 175 191 192 194 213 233 252 271 290 309 330
b 84 9 30 51 72 93 114 135 150 156 170 175 191 192 194 213 233 252 271 290 309 330
b 85 9 30 51 72 93 99 114 118 120 135 137 156 175 194 213 233 252 271 290 309 330
b 86 99 118 120 137 156 175 194 213 215 233 236 238 252 257 259 271 280 290 309 330
b 87 99 118 120 137 156 175 194 215 217 236 238 257 259 280
b 88 217 236 237 238 257
b 89 99 118 120 137 156 175 177 194 198 215 217 236 238 259 280
b 90 156 175 177 194 196 198 215 217 236
b 91 196 215 216 217 236
b 92 175 194 195 196 215
b 93 156 175 176 177 196
b 94 177 196 197 198 217
b 95 99 118 120 137 156 177 179 198 200 217 238 259 280
b 96 99 118 120 137 156 158 177 179 198 200
b 97 158 177 178 179 198
b 98 99 118 120 137 139 158 179 200
b 99 118 137 138 139 158
b 100 99 118 119 120 139
b 101 120 139 158 160 179 200
b 102 160 179 180 200
b 103 139 158 159 160 179
b 104 120 139 140 160
b 105 137 156 157 158 177
b 106 179 198 200 217 219 238 259 280
b 107 198 217 218 219 238
b 108 200 219 238 240 259 280
b 109 219 238 239 240 259
b 110 200 219 220 240
b 111 240 259 260 280
b 112 179 198 199 200 219
b 113 194 213 215 233 236 238 252 257 259 271 273 280 290 294 309 313 330 334
b 114 194 213 215 233 236 238 252 257 259 273 275 276 280 294 313 334
b 115 194 213 215 233 236 252 254 257 273 275 276 294
b 116 254 273 274 275 294
b 117 233 252 253 254 273
b 118 194 213 215 233 236 254 255 257 275 276
b 119 194 213 215 233 234 236 254 255
b 120 194 213 214 215 234
b 121 215 234 235 236 255
b 122 236 255 256 257 276
b 123 238 257 259 275 276 280 294 297 313 317 334 338
b 124 275 276 294 296 297 313 317 334 338
b 125 275 294 296 313 315 317 334 338
b 126 296 315 317 334 336 338
b 127 296 315 316 317 336
b 128 315 334 335 336
b 129 317 336 337 338
b 130 275 294 295 296 315
b 131 294 313 314 315 334
b 132 238 257 259 276 278 280 297 317 338
b 133 259 278 280 297 317 318 338
b 134 259 278 280 297 299 318 338
b 135 278 297 298 299 318
b 136 280 299 300 318 338
b 137 299 300 318 319 338
b 138 259 278 279 280 299
b 139 257 276 277 278 297
b 140 238 257 258 259 278
b 141 252 271 273 290 292 294 309 313 330 334
b 142 273 292 293 294 313
b 143 252 271 272 273 292
b 144 271 290 292 309 311 313 330 334
b 145 292 311 313 330 332 334
b 146 313 332 333 334
b 147 292 311 312 313 332
b 148 311 330 331 332
b 149 290 309 310 311 330
b 150 271 290 291 292 311
b 151 9 13 30 34 51 55 72 74 93 99 114 118 120 135 137 156
b 152 9 13 30 34 51 53 55 72 74 93
b 153 34 53 54 55 74
b 154 53 72 73 74 93
b 155 9 13 30 32 34 51 53 72
b 156 13 32 33 34 53
b 157 9 11 13 30 32 51
b 158 9 10 11 30
b 159 11 30 31 32 51
b 160 11 12 13 32
b 161 32 51 52 53 72
b 162 13 34 55 74 76 93 97 99 114 118 120 135 137 156
b 163 13 17 34 36 55 76 97 99 118 120
b 164 17 36 55 76 78 97 99 118 120
b 165 17 36 55 57 76 78 97 99 120
b 166 36 55 56 57 76
b 167 17 36 57 78 80 99 120
b 168 80 99 100 120
b 169 17 36 57 59 78 80 99
b 170 59 78 79 80 99
b 171 17 36 38 57 59 78 80
b 172 17 38 59 60 80
b 173 17 18 38 59 60
b 174 18 38 39 59 60
b 175 38 57 58 59 78
b 176 17 36 37 38 57
b 177 57 76 77 78 97
b 178 78 97 98 99 118
b 179 13 15 17 34 36 55
b 180 13 14 15 34
b 181 15 34 35 36 55
b 182 15 16 17 36
b 183 55 74 76 93 97 114 116 118 135 137 156
b 184 116 135 136 137 156
b 185 97 116 117 118 137
b 186 55 74 76 93 95 97 114 116 135
b 187 76 95 96 97 116
b 188 74 93 94 95 114
b 189 55 74 75 76 95
b 190 95 114 115 116 135
b 191 93 112 114 131 135 150 156 170 173 175 191 192 194 213
b 192 173 192 193 194 213
b 193 93 112 114 131 135 150 152 156 170 173 175 191 192 194
b 194 131 150 152 170 171 173 191 192
b 195 131 150 151 152 171
b 196 152 171 172 173 192
b 197 93 112 114 131 135 152 154 156 173 175 194
b 198 135 154 155 156 175
b 199 154 173 174 175 194
b 200 93 112 114 131 133 135 152 154 173
b 201 133 152 153 154 173
b 202 114 133 134 135 154
b 203 112 131 132 133 152
b 204 93 112 113 114 133
b 205 191 192 210 213 229 231 233 248 252 269 271 290
b 206 210 229 231 248 250 252 269 271 290
b 207 250 269 270 271 290
b 208 231 250 251 252 271
b 209 210 229 230 231 250
b 210 229 248 249 250 269
b 211 191 192 210 212 213 231 233 252
b 212 212 231 232 233 252
b 213 191 210 211 212 231
b 214 107 126 127 128 147
b 215 126 145 147 164 168 185 187 189 206 210 227 229 248
b 216 126 145 147 164 166 168 185 187 206
b 217 166 185 186 187 206
b 218 145 164 165 166 185
b 219 147 166 167 168 187
b 220 126 145 146 147 166
b 221 168 187 189 206 208 210 227 229 248
b 222 168 187 188 189 208
b 223 189 208 209 210 229
b 224 187 206 207 208 227
b 225 208 227 228 229 248
b 226 128 129 147 149 150 168 170 189
b 227 128 147 148 149 168
b 228 149 168 169 170 189
b 229 164 181 183 185 202 206 223 225 227 244 248 267 286 305 326
b 230 164 183 185 202 204 206 223 225 244
b 231 164 183 184 185 204
b 232 185 204 205 206 225
b 233 183 202 203 204 223
b 234 204 223 224 225 244
b 235 181 202 206 223 225 227 244 248 265 267 286 305 326
b 236 181 202 223 242 244 261 265 286 305 326
b 237 181 202 221 223 242 261
b 238 181 201 202 221
b 239 221 241 242 261
b 240 202 221 222 223 242
b 241 223 242 244 261 265 284 286 305 326
b 242 265 284 285 286 305
b 243 223 242 244 261 263 265 284 305 326
b 244 244 263 264 265 284
b 245 242 261 263 284 305 324 326
b 246 305 324 325 326
b 247 242 261 263 284 303 305 324
b 248 242 261 263 282 284 303 324
b 249 263 282 283 284 303
b 250 242 261 262 263 282
b 251 261 282 303 323 324
b 252 261 281 282 303 323
b 253 281 282 302 303 323
b 254 284 303 304 305 324
b 255 223 242 243 244 263
b 256 206 225 227 244 246 248 265 267 286
b 257 206 225 226 227 246
b 258 225 244 245 246 265
b 259 246 265 266 267 286
b 260 227 246 247 248 267
b 261 248 267 269 286 288 290 305 309 326 330
b 262 248 267 268 269 288
b 263 267 286 288 305 307 309 326 330
b 264 286 305 306 307 326
b 265 288 307 309 326 328 330
b 266 309 328 329 330
b 267 307 326 327 328
b 268 288 307 308 309 328
b 269 267 286 287 288 307
b 270 269 288 289 290 309
b 271 320 339 340
b 272 301 321 322
b 273 19 20 40
1 2
2 4
3 273
3 5
4 38
5 174
6 272
6 8
7 271
7 9
8 253
9 137
10 11
11 37
11 12
12 36
12 13
13 35
13 14
14 34
14 15
15 33
15 16
16 32
16 17
17 31
17 18
18 30
18 19
19 21
19 20
21 24
21 22
22 44
22 23
24 28
24 29
24 25
25 27
25 26
37 38
39 47
40 44
41 45
42 46
43 45
44 46
45 56
45 51
46 48
47 67
47 49
48 60
48 51
49 226
49 50
50 214
50 53
51 53
52 229
52 261
52 55
53 54
54 215
54 55
56 57
56 58
56 59
60 62
60 63
60 61
63 65
63 66
63 64
67 82
67 68
68 69
68 70
70 74
70 71
71 72
71 73
74 80
74 81
74 75
75 78
75 77
75 79
75 76
82 205
82 83
83 191
83 85
83 84
85 86
85 151
86 87
86 113
87 88
87 89
89 90
89 95
90 93
90 92
90 94
90 91
95 106
95 96
96 105
96 97
96 98
98 100
98 99
98 101
101 104
101 102
101 103
106 112
106 107
106 108
108 110
108 111
108 109
113 141
113 114
114 123
114 115
115 117
115 116
115 118
118 122
118 119
119 120
119 121
123 124
123 132
124 125
125 131
125 130
125 126
126 128
126 129
126 127
132 140
132 139
132 133
133 134
134 136
134 138
134 135
136 137
141 143
141 142
141 144
144 149
144 150
144 145
145 148
145 146
145 147
151 152
151 162
152 153
152 154
152 155
155 156
155 161
155 157
157 158
157 160
157 159
162 163
162 183
163 179
163 164
164 178
164 165
165 166
165 177
165 167
167 168
167 169
169 170
169 171
171 172
171 176
171 175
172 173
173 174
179 180
179 182
179 181
183 185
183 184
183 186
186 189
186 188
186 187
186 190
191 192
191 193
193 194
193 197
194 195
194 196
197 198
197 199
197 200
200 204
200 203
200 202
200 201
205 211
205 206
206 207
206 208
206 209
206 210
211 213
211 212
215 221
215 216
216 218
216 220
216 217
216 219
221 224
221 222
221 225
221 223
226 227
226 228
229 230
229 235
230 233
230 231
230 234
230 232
235 236
235 256
236 237
236 241
237 238
237 239
237 240
241 242
241 243
243 255
243 244
243 245
245 246
245 247
247 254
247 248
248 251
248 250
248 249
251 252
252 253
256 258
256 257
256 259
256 260
261 263
261 270
261 262
263 264
263 265
263 269
265 267
265 266
265 268
